p cnf 31 77
a 19 27 0
e 1 2 3 4 5 6 7 8 9 10 11 12 13 14 15 16 17 18 20 21 22 23 24 25 26 28 29 30 31 0
-3 1 0
-3 2 0
-1 -2 3 0
-4 5 0
4 5 0
6 5 0
6 5 0
-5 -6 0
7 8 -9 0
-7 -8 -9 0
7 -8 9 0
-7 8 9 0
6 -9 -10 0
-6 9 -10 0
6 9 10 0
-6 -9 10 0
11 10 0
11 1 0
-10 -1 -11 0
13 8 -14 0
-13 -8 -14 0
13 -8 14 0
-13 8 14 0
12 -14 -15 0
-12 14 -15 0
12 14 15 0
-12 -14 15 0
-15 -16 -17 0
15 16 -17 0
-15 16 17 0
15 -16 17 0
18 -5 0
18 13 0
5 -13 -18 0
-17 -18 -19 0
17 18 -19 0
-17 18 19 0
17 -18 19 0
-20 -12 0
-20 -8 0
12 8 20 0
-21 -19 0
-21 20 0
19 -20 21 0
22 -11 0
22 -21 0
11 21 -22 0
-24 23 0
-24 -5 0
-23 5 24 0
25 24 0
25 4 0
-24 -4 -25 0
27 25 0
27 26 0
-25 -26 -27 0
-28 -4 0
-28 23 0
4 -23 28 0
-27 28 -29 0
27 -28 -29 0
-27 -28 29 0
27 28 29 0
-30 22 0
-30 -29 0
-22 29 30 0
31 3 0
31 -30 0
-3 30 -31 0
27 -7 0
6 -12 -25 26 -5 -3 0
11 16 27 10 24 0
24 -13 -30 -31 0
9 -5 -26 0
15 -19 -26 4 0
-24 -13 16 0
31 0
